p tw 75 100
0 1
0 44
0 52
2 3
2 5
3 8
3 61
4 5
4 48
4 60
4 66
4 68
4 64
5 47
6 7
6 11
7 19
8 9
8 32
8 39
8 34
8 35
8 44
8 43
9 30
9 29
9 69
9 42
10 11
10 14
12 13
12 19
12 70
13 39
14 23
14 63
15 16
15 25
15 64
16 22
17 18
17 22
17 26
17 31
17 33
17 72
18 30
19 54
20 21
20 49
20 55
21 37
21 45
22 43
22 45
24 25
25 37
26 51
27 28
28 67
28 45
29 30
29 36
29 59
30 38
30 39
30 58
31 32
31 66
33 46
34 35
34 42
34 46
34 68
37 62
38 40
39 54
40 41
40 47
41 53
41 55
42 55
43 62
43 56
46 70
46 48
48 50
48 62
51 56
51 62
51 67
52 65
52 55
54 61
55 72
56 57
57 73
60 65
61 74
69 71
